N = 7;
H = 6;
T = 2;

avail = array3d(1..N, 1..H, 1..T, [5, 7, 2, 5, 6, 4, 8, 10, 3, 3, 5, 5, 3, 4, 6, 1, 8, 4, 8, 8, 8, 5, 4, 2, 6, 7, 4, 3, 7, 8, 3, 0, 3, 10, 0, 9, 1, 7, 9, 0, 2, 5, 3, 8, 2, 3, 1, 7, 5, 4, 7, 6, 1, 10, 9, 9, 6, 6, 2, 9, 7, 5, 0, 7, 0, 2, 0, 3, 2, 9, 0, 9, 10, 2, 10, 2, 6, 3, 2, 2, 6, 7, 3, 5]);

r = array2d(1..H, 1..T, [1, 2, 1, 2, 1, 2, 1, 2, 3, 3, 1, 1]);
